c seed= 704850600
p cnf 8 32
3 -7 -8 0
-5 3 8 0
2 -1 8 0
2 -3 5 0
4 3 8 0
7 -4 -2 0
7 -2 8 0
3 7 1 0
1 -6 -7 0
1 7 3 0
1 6 -8 0
-7 -4 8 0
-8 -1 -2 0
-1 8 5 0
-7 -2 3 0
5 2 8 0
4 -8 -7 0
6 1 7 0
2 -5 6 0
-8 -2 4 0
4 -6 5 0
-3 -1 -5 0
-3 -4 7 0
7 2 8 0
-3 6 -4 0
-2 7 6 0
-8 -2 -1 0
4 3 -1 0
-4 3 7 0
7 1 -6 0
-7 8 -5 0
-2 1 -3 0
